20	5
0	7	1	5	3	2	7	6	4
1	5	14	17	15	16	20
2	3	8	9	12
3	3	8	12	13
4	2	9	17
5	8	20	18	15	13	17	14	16	19
6	3	17	11	9
7	4	17	13	8	20
8	3	14	18	11
9	5	15	13	14	20	18
10	3	16	19	17
11	2	19	15
12	2	15	18
13	1	21
14	1	21
15	1	21
16	1	21
17	1	21
18	1	21
19	1	21
20	1	21
21	0
0	0	0	0	0	0	0
1	3	4	1	4	2	1
2	1	3	4	4	2	3
3	5	4	5	4	2	2
4	7	4	4	5	3	5
5	1	1	2	3	3	3
6	3	4	2	2	1	2
7	2	5	2	4	3	1
8	6	4	1	1	4	5
9	6	5	5	5	5	3
10	9	4	3	1	5	4
11	2	5	2	4	5	5
12	2	2	5	4	3	5
13	10	4	1	5	4	2
14	3	2	4	1	1	5
15	9	4	2	2	4	4
16	6	5	2	4	1	5
17	3	3	3	4	3	2
18	5	3	2	5	2	1
19	7	1	1	1	3	1
20	7	2	3	4	2	4
21	0	0	0	0	0	0
5	5	5	5	5
